generated by phonopy
   1.0
     5.8798843563999998  -10.1842584475999995    0.0000000000000000
     5.8798843563999998   10.1842584475999995    0.0000000000000000
     0.0000000000000000    0.0000000000000000   11.5607003200000005
Ta N
  64   64
Direct
  0.0000000000000000  0.0000000000000000  0.1250000000000000
  0.2500000000000000  0.0000000000000000  0.1250000000000000
  0.5000000000000000  0.0000000000000000  0.1250000000000000
  0.7500000000000000  0.0000000000000000  0.1250000000000000
  0.0000000000000000  0.2500000000000000  0.1250000000000000
  0.2500000000000000  0.2500000000000000  0.1250000000000000
  0.5000000000000000  0.2500000000000000  0.1250000000000000
  0.7500000000000000  0.2500000000000000  0.1250000000000000
  0.0000000000000000  0.5000000000000000  0.1250000000000000
  0.2500000000000000  0.5000000000000000  0.1250000000000000
  0.5000000000000000  0.5000000000000000  0.1250000000000000
  0.7500000000000000  0.5000000000000000  0.1250000000000000
  0.0000000000000000  0.7500000000000000  0.1250000000000000
  0.2500000000000000  0.7500000000000000  0.1250000000000000
  0.5000000000000000  0.7500000000000000  0.1250000000000000
  0.7500000000000000  0.7500000000000000  0.1250000000000000
  0.0000000000000000  0.0000000000000000  0.3750000000000000
  0.2500000000000000  0.0000000000000000  0.3750000000000000
  0.5000000000000000  0.0000000000000000  0.3750000000000000
  0.7500000000000000  0.0000000000000000  0.3750000000000000
  0.0000000000000000  0.2500000000000000  0.3750000000000000
  0.2500000000000000  0.2500000000000000  0.3750000000000000
  0.5000000000000000  0.2500000000000000  0.3750000000000000
  0.7500000000000000  0.2500000000000000  0.3750000000000000
  0.0000000000000000  0.5000000000000000  0.3750000000000000
  0.2500000000000000  0.5000000000000000  0.3750000000000000
  0.5000000000000000  0.5000000000000000  0.3750000000000000
  0.7500000000000000  0.5000000000000000  0.3750000000000000
  0.0000000000000000  0.7500000000000000  0.3750000000000000
  0.2500000000000000  0.7500000000000000  0.3750000000000000
  0.5000000000000000  0.7500000000000000  0.3750000000000000
  0.7500000000000000  0.7500000000000000  0.3750000000000000
  0.0000000000000000  0.0000000000000000  0.6250000000000000
  0.2500000000000000  0.0000000000000000  0.6250000000000000
  0.5000000000000000  0.0000000000000000  0.6250000000000000
  0.7500000000000000  0.0000000000000000  0.6250000000000000
  0.0000000000000000  0.2500000000000000  0.6250000000000000
  0.2500000000000000  0.2500000000000000  0.6250000000000000
  0.5000000000000000  0.2500000000000000  0.6250000000000000
  0.7500000000000000  0.2500000000000000  0.6250000000000000
  0.0000000000000000  0.5000000000000000  0.6250000000000000
  0.2500000000000000  0.5000000000000000  0.6250000000000000
  0.5000000000000000  0.5000000000000000  0.6250000000000000
  0.7500000000000000  0.5000000000000000  0.6250000000000000
  0.0000000000000000  0.7500000000000000  0.6250000000000000
  0.2500000000000000  0.7500000000000000  0.6250000000000000
  0.5000000000000000  0.7500000000000000  0.6250000000000000
  0.7500000000000000  0.7500000000000000  0.6250000000000000
  0.0000000000000000  0.0000000000000000  0.8750000000000000
  0.2500000000000000  0.0000000000000000  0.8750000000000000
  0.5000000000000000  0.0000000000000000  0.8750000000000000
  0.7500000000000000  0.0000000000000000  0.8750000000000000
  0.0000000000000000  0.2500000000000000  0.8750000000000000
  0.2500000000000000  0.2500000000000000  0.8750000000000000
  0.5000000000000000  0.2500000000000000  0.8750000000000000
  0.7500000000000000  0.2500000000000000  0.8750000000000000
  0.0000000000000000  0.5000000000000000  0.8750000000000000
  0.2500000000000000  0.5000000000000000  0.8750000000000000
  0.5000000000000000  0.5000000000000000  0.8750000000000000
  0.7500000000000000  0.5000000000000000  0.8750000000000000
  0.0000000000000000  0.7500000000000000  0.8750000000000000
  0.2500000000000000  0.7500000000000000  0.8750000000000000
  0.5000000000000000  0.7500000000000000  0.8750000000000000
  0.7500000000000000  0.7500000000000000  0.8750000000000000
  0.1666666666750000  0.0833333333250000  0.0000000000000000
  0.4166666666750000  0.0833333333250000  0.0000000000000000
  0.6666666666750000  0.0833333333250000  0.0000000000000000
  0.9166666666750000  0.0833333333250000  0.0000000000000000
  0.1666666666750000  0.3333333333250000  0.0000000000000000
  0.4166666666750000  0.3333333333250000  0.0000000000000000
  0.6666666666750000  0.3333333333250000  0.0000000000000000
  0.9166666666750000  0.3333333333250000  0.0000000000000000
  0.1666666666750000  0.5833333333250000  0.0000000000000000
  0.4166666666750000  0.5833333333250000  0.0000000000000000
  0.6666666666750000  0.5833333333250000  0.0000000000000000
  0.9166666666750000  0.5833333333250000  0.0000000000000000
  0.1666666666750000  0.8333333333250000  0.0000000000000000
  0.4166666666750000  0.8333333333250000  0.0000000000000000
  0.6666666666750000  0.8333333333250000  0.0000000000000000
  0.9166666666750000  0.8333333333250000  0.0000000000000000
  0.1666666666750000  0.0833333333250000  0.2500000000000000
  0.4166666666750000  0.0833333333250000  0.2500000000000000
  0.6666666666750000  0.0833333333250000  0.2500000000000000
  0.9166666666750000  0.0833333333250000  0.2500000000000000
  0.1666666666750000  0.3333333333250000  0.2500000000000000
  0.4166666666750000  0.3333333333250000  0.2500000000000000
  0.6666666666750000  0.3333333333250000  0.2500000000000000
  0.9166666666750000  0.3333333333250000  0.2500000000000000
  0.1666666666750000  0.5833333333250000  0.2500000000000000
  0.4166666666750000  0.5833333333250000  0.2500000000000000
  0.6666666666750000  0.5833333333250000  0.2500000000000000
  0.9166666666750000  0.5833333333250000  0.2500000000000000
  0.1666666666750000  0.8333333333250000  0.2500000000000000
  0.4166666666750000  0.8333333333250000  0.2500000000000000
  0.6666666666750000  0.8333333333250000  0.2500000000000000
  0.9166666666750000  0.8333333333250000  0.2500000000000000
  0.1666666666750000  0.0833333333250000  0.5000000000000000
  0.4166666666750000  0.0833333333250000  0.5000000000000000
  0.6666666666750000  0.0833333333250000  0.5000000000000000
  0.9166666666750000  0.0833333333250000  0.5000000000000000
  0.1666666666750000  0.3333333333250000  0.5000000000000000
  0.4166666666750000  0.3333333333250000  0.5000000000000000
  0.6666666666750000  0.3333333333250000  0.5000000000000000
  0.9166666666750000  0.3333333333250000  0.5000000000000000
  0.1666666666750000  0.5833333333250000  0.5000000000000000
  0.4166666666750000  0.5833333333250000  0.5000000000000000
  0.6666666666750000  0.5833333333250000  0.5000000000000000
  0.9166666666750000  0.5833333333250000  0.5000000000000000
  0.1666666666750000  0.8333333333250000  0.5000000000000000
  0.4166666666750000  0.8333333333250000  0.5000000000000000
  0.6666666666750000  0.8333333333250000  0.5000000000000000
  0.9166666666750000  0.8333333333250000  0.5000000000000000
  0.1666666666750000  0.0833333333250000  0.7500000000000000
  0.4166666666750000  0.0833333333250000  0.7500000000000000
  0.6666666666750000  0.0833333333250000  0.7500000000000000
  0.9166666666750000  0.0833333333250000  0.7500000000000000
  0.1666666666750000  0.3333333333250000  0.7500000000000000
  0.4166666666750000  0.3333333333250000  0.7500000000000000
  0.6666666666750000  0.3333333333250000  0.7500000000000000
  0.9166666666750000  0.3333333333250000  0.7500000000000000
  0.1666666666750000  0.5833333333250000  0.7500000000000000
  0.4166666666750000  0.5833333333250000  0.7500000000000000
  0.6666666666750000  0.5833333333250000  0.7500000000000000
  0.9166666666750000  0.5833333333250000  0.7500000000000000
  0.1666666666750000  0.8333333333250000  0.7500000000000000
  0.4166666666750000  0.8333333333250000  0.7500000000000000
  0.6666666666750000  0.8333333333250000  0.7500000000000000
  0.9166666666750000  0.8333333333250000  0.7500000000000000
